problems/VanDerWaerdenNumbers/VanDerWaerden-models/noch/O2/lingeling/model_2-k3l4n40-solution000001.eprime-solution
language ESSENCE' 1.0

letting p_PartitionAsSet_ExplicitR6_ExplicitVarSizeWithDummy be
        [[1, 5, 8, 10, 11, 12, 18, 20, 21, 22, 27, 29, 34, 37, 40, 41, 41, 41, 41, 41, 41, 41, 41, 41, 41, 41, 41, 41,
          41, 41, 41, 41, 41, 41, 41, 41, 41, 41, 41, 41; int(1..40)],
         [2, 4, 7, 9, 13, 15, 17, 25, 26, 32, 38, 39, 41, 41, 41, 41, 41, 41, 41, 41, 41, 41, 41, 41, 41, 41, 41, 41,
          41, 41, 41, 41, 41, 41, 41, 41, 41, 41, 41, 41; int(1..40)],
         [3, 6, 14, 16, 19, 23, 24, 28, 30, 31, 33, 35, 36, 41, 41, 41, 41, 41, 41, 41, 41, 41, 41, 41, 41, 41, 41, 41,
          41, 41, 41, 41, 41, 41, 41, 41, 41, 41, 41, 41; int(1..40)]; int(1..3)]
