problems/VanDerWaerdenNumbers/VanDerWaerden-models/noch/O2/lingeling/model_2-k3l4n40-solution000001.solution
language Essence 1.3

letting p be
        partition({1, 5, 8, 10, 11, 12, 18, 20, 21, 22, 27, 29, 34, 37, 40},
                  {2, 4, 7, 9, 13, 15, 17, 25, 26, 32, 38, 39}, {3, 6, 14, 16, 19, 23, 24, 28, 30, 31, 33, 35, 36})
